(declare-fun var0 () String)
(assert (RegexIn var0 (RegexConcat (RegexStar (RegexPlus (RegexPlus (RegexStar (RegexStar (RegexPlus (RegexStar (RegexStar (RegexPlus (RegexUnion (RegexPlus (RegexStar (RegexStar (RegexStar (RegexUnion (RegexPlus (RegexPlus (RegexPlus (RegexPlus (RegexUnion (Str2Reg "PPPP") (Str2Reg "QQQ")))))) (RegexUnion (RegexUnion (RegexPlus (RegexUnion (RegexStar (Str2Reg "RR")) (RegexStar (Str2Reg "SSSSS")))) (RegexStar (RegexStar (RegexPlus (Str2Reg "TTTT"))))) (RegexPlus (RegexStar (RegexStar (RegexUnion (Str2Reg "UUUUU") (Str2Reg "VVVV"))))))))))) (RegexPlus (RegexUnion (RegexPlus (RegexUnion (RegexStar (RegexUnion (RegexUnion (RegexStar (RegexPlus (RegexPlus (Str2Reg "WWW")))) (RegexPlus (RegexStar (RegexUnion (Str2Reg "XXX") (Str2Reg "YYY"))))) (RegexUnion (RegexPlus (RegexStar (RegexPlus (Str2Reg "ZZZ")))) (RegexUnion (RegexUnion (RegexPlus (Str2Reg "!!!!")) (RegexStar (Str2Reg "\"\"\"\"\""))) (RegexStar (RegexPlus (Str2Reg "##"))))))) (RegexPlus (RegexStar (RegexUnion (RegexPlus (RegexPlus (RegexPlus (Str2Reg "$$$$")))) (RegexPlus (RegexUnion (RegexStar (Str2Reg "%%")) (RegexStar (Str2Reg "&&&"))))))))) (RegexPlus (RegexPlus (RegexPlus (RegexUnion (RegexStar (RegexStar (RegexStar (RegexPlus (Str2Reg "''"))))) (RegexPlus (RegexStar (RegexStar (RegexStar (Str2Reg "(((("))))))))))))))))))))) (RegexConcat (RegexPlus (RegexStar (RegexUnion (RegexUnion (RegexUnion (RegexStar (RegexUnion (RegexUnion (RegexPlus (RegexStar (RegexPlus (RegexUnion (RegexPlus (RegexUnion (RegexStar (RegexStar (RegexPlus (RegexUnion (RegexStar (RegexPlus (Str2Reg "ooo"))) (RegexStar (RegexUnion (Str2Reg "pppp") (Str2Reg "qq"))))))) (RegexUnion (RegexUnion (RegexUnion (RegexPlus (RegexStar (RegexPlus (Str2Reg "rrrrr")))) (RegexUnion (RegexUnion (RegexStar (Str2Reg "ss")) (RegexPlus (Str2Reg "tttt"))) (RegexStar (RegexStar (Str2Reg "uuu"))))) (RegexStar (RegexPlus (RegexUnion (RegexUnion (Str2Reg "vvvv") (Str2Reg "wwwww")) (RegexPlus (Str2Reg "xxxx")))))) (RegexPlus (RegexStar (RegexPlus (RegexStar (RegexPlus (Str2Reg "yyy"))))))))) (RegexStar (RegexPlus (RegexStar (RegexPlus (RegexUnion (RegexPlus (RegexUnion (RegexPlus (Str2Reg "zz")) (RegexPlus (Str2Reg "AAAAA")))) (RegexStar (RegexPlus (RegexPlus (Str2Reg "BBBB"))))))))))))) (RegexStar (RegexUnion (RegexPlus (RegexUnion (RegexUnion (RegexStar (RegexUnion (RegexStar (RegexStar (RegexUnion (RegexPlus (RegexStar (Str2Reg "CCCC"))) (RegexUnion (RegexStar (Str2Reg "DDDDD")) (RegexStar (Str2Reg "EEEEE")))))) (RegexPlus (RegexStar (RegexPlus (RegexUnion (RegexUnion (Str2Reg "FFF") (Str2Reg "GG")) (RegexUnion (Str2Reg "HHHH") (Str2Reg "III")))))))) (RegexPlus (RegexPlus (RegexPlus (RegexUnion (RegexUnion (RegexStar (RegexUnion (Str2Reg "JJJ") (Str2Reg "KKKKK"))) (RegexStar (RegexPlus (Str2Reg "LLL")))) (RegexUnion (RegexStar (RegexStar (Str2Reg "MM"))) (RegexPlus (RegexStar (Str2Reg "NN"))))))))) (RegexUnion (RegexPlus (RegexUnion (RegexUnion (RegexStar (RegexPlus (RegexPlus (RegexUnion (Str2Reg "OOO") (Str2Reg "PPPPP"))))) (RegexPlus (RegexStar (RegexUnion (RegexUnion (Str2Reg "QQQQ") (Str2Reg "RR")) (RegexStar (Str2Reg "SSSS")))))) (RegexPlus (RegexUnion (RegexUnion (RegexStar (RegexUnion (Str2Reg "TTT") (Str2Reg "UUU"))) (RegexStar (RegexStar (Str2Reg "VV")))) (RegexStar (RegexStar (RegexPlus (Str2Reg "WWWW")))))))) (RegexPlus (RegexUnion (RegexUnion (RegexStar (RegexUnion (RegexPlus (RegexPlus (Str2Reg "XX"))) (RegexPlus (RegexPlus (Str2Reg "YY"))))) (RegexUnion (RegexStar (RegexStar (RegexStar (Str2Reg "ZZZZZ")))) (RegexStar (RegexStar (RegexPlus (Str2Reg "!!!")))))) (RegexStar (RegexPlus (RegexPlus (RegexPlus (RegexStar (Str2Reg "\"\"\"\""))))))))))) (RegexStar (RegexStar (RegexStar (RegexPlus (RegexStar (RegexUnion (RegexPlus (RegexPlus (RegexStar (RegexPlus (Str2Reg "##"))))) (RegexUnion (RegexUnion (RegexUnion (RegexPlus (Str2Reg "$$$$")) (RegexUnion (Str2Reg "%%") (Str2Reg "&&&&&"))) (RegexPlus (RegexPlus (Str2Reg "'''")))) (RegexPlus (RegexUnion (RegexUnion (Str2Reg "(((((") (Str2Reg "))")) (RegexUnion (Str2Reg "****") (Str2Reg "+++++")))))))))))))) (RegexPlus (RegexUnion (RegexPlus (RegexPlus (RegexUnion (RegexStar (RegexUnion (RegexUnion (RegexPlus (RegexStar (RegexUnion (RegexUnion (RegexPlus (Str2Reg ",,")) (RegexStar (Str2Reg "-----"))) (RegexPlus (RegexPlus (Str2Reg "....")))))) (RegexPlus (RegexUnion (RegexUnion (RegexPlus (RegexStar (Str2Reg "///"))) (RegexPlus (RegexUnion (Str2Reg ":::::") (Str2Reg ";;")))) (RegexStar (RegexPlus (RegexPlus (Str2Reg "<<<"))))))) (RegexUnion (RegexPlus (RegexUnion (RegexUnion (RegexPlus (RegexStar (Str2Reg "==="))) (RegexStar (RegexStar (Str2Reg ">>")))) (RegexUnion (RegexPlus (RegexUnion (Str2Reg "??") (Str2Reg "@@@@@"))) (RegexUnion (RegexUnion (Str2Reg "[[[") (Str2Reg "\\\\")) (RegexStar (Str2Reg "]]")))))) (RegexStar (RegexStar (RegexPlus (RegexStar (RegexUnion (Str2Reg "^^") (Str2Reg "____"))))))))) (RegexStar (RegexUnion (RegexPlus (RegexStar (RegexStar (RegexUnion (RegexUnion (RegexPlus (Str2Reg "```")) (RegexUnion (Str2Reg "{{{") (Str2Reg "|||"))) (RegexStar (RegexUnion (Str2Reg "}}}") (Str2Reg "~~~~"))))))) (RegexPlus (RegexStar (RegexUnion (RegexStar (RegexStar (RegexStar (Str2Reg "0000")))) (RegexUnion (RegexStar (RegexUnion (Str2Reg "11111") (Str2Reg "2222"))) (RegexPlus (RegexUnion (Str2Reg "33") (Str2Reg "44444")))))))))))) (RegexPlus (RegexStar (RegexUnion (RegexPlus (RegexUnion (RegexUnion (RegexPlus (RegexPlus (RegexPlus (RegexStar (RegexUnion (Str2Reg "55") (Str2Reg "666")))))) (RegexUnion (RegexPlus (RegexPlus (RegexUnion (RegexUnion (Str2Reg "7777") (Str2Reg "888")) (RegexUnion (Str2Reg "99") (Str2Reg "aaaa"))))) (RegexPlus (RegexStar (RegexUnion (RegexPlus (Str2Reg "bbbb")) (RegexStar (Str2Reg "ccccc"))))))) (RegexStar (RegexStar (RegexPlus (RegexStar (RegexPlus (RegexStar (Str2Reg "ddd"))))))))) (RegexPlus (RegexPlus (RegexUnion (RegexPlus (RegexUnion (RegexStar (RegexUnion (RegexUnion (Str2Reg "eee") (Str2Reg "fff")) (RegexStar (Str2Reg "gggg")))) (RegexUnion (RegexPlus (RegexStar (Str2Reg "hh"))) (RegexPlus (RegexPlus (Str2Reg "iiii")))))) (RegexStar (RegexPlus (RegexPlus (RegexPlus (RegexPlus (Str2Reg "jjjj")))))))))))))))) (RegexUnion (RegexUnion (RegexUnion (RegexUnion (RegexPlus (RegexStar (RegexUnion (RegexPlus (RegexUnion (RegexUnion (RegexStar (RegexPlus (RegexPlus (RegexUnion (RegexPlus (Str2Reg "kk")) (RegexPlus (Str2Reg "lll")))))) (RegexStar (RegexPlus (RegexStar (RegexStar (RegexUnion (Str2Reg "mmmm") (Str2Reg "nn"))))))) (RegexUnion (RegexUnion (RegexUnion (RegexStar (RegexStar (RegexPlus (Str2Reg "oooo")))) (RegexUnion (RegexPlus (RegexPlus (Str2Reg "pp"))) (RegexUnion (RegexUnion (Str2Reg "qqqqq") (Str2Reg "rrrr")) (RegexStar (Str2Reg "sssss"))))) (RegexPlus (RegexPlus (RegexStar (RegexPlus (Str2Reg "ttt")))))) (RegexPlus (RegexUnion (RegexUnion (RegexUnion (RegexPlus (Str2Reg "uuu")) (RegexPlus (Str2Reg "vvvv"))) (RegexStar (RegexPlus (Str2Reg "wwww")))) (RegexUnion (RegexPlus (RegexStar (Str2Reg "xxx"))) (RegexPlus (RegexPlus (Str2Reg "yyy"))))))))) (RegexStar (RegexStar (RegexUnion (RegexUnion (RegexUnion (RegexPlus (RegexStar (RegexUnion (Str2Reg "zz") (Str2Reg "AA")))) (RegexUnion (RegexStar (RegexUnion (Str2Reg "BBB") (Str2Reg "CCCC"))) (RegexUnion (RegexPlus (Str2Reg "DDDDD")) (RegexPlus (Str2Reg "EEEE"))))) (RegexStar (RegexStar (RegexPlus (RegexPlus (Str2Reg "FFFFF")))))) (RegexStar (RegexPlus (RegexUnion (RegexUnion (RegexStar (Str2Reg "GGGGG")) (RegexPlus (Str2Reg "HH"))) (RegexStar (RegexPlus (Str2Reg "II")))))))))))) (RegexStar (RegexUnion (RegexPlus (RegexUnion (RegexUnion (RegexPlus (RegexStar (RegexStar (RegexUnion (RegexPlus (RegexPlus (Str2Reg "JJJJJ"))) (RegexUnion (RegexPlus (Str2Reg "KKKK")) (RegexPlus (Str2Reg "LLL"))))))) (RegexUnion (RegexPlus (RegexUnion (RegexUnion (RegexStar (RegexStar (Str2Reg "MMM"))) (RegexUnion (RegexStar (Str2Reg "NN")) (RegexStar (Str2Reg "OOO")))) (RegexPlus (RegexUnion (RegexUnion (Str2Reg "PP") (Str2Reg "QQQQQ")) (RegexPlus (Str2Reg "RR")))))) (RegexUnion (RegexUnion (RegexStar (RegexUnion (RegexUnion (Str2Reg "SSSSS") (Str2Reg "TT")) (RegexPlus (Str2Reg "UUUU")))) (RegexPlus (RegexPlus (RegexUnion (Str2Reg "VV") (Str2Reg "WWWW"))))) (RegexPlus (RegexPlus (RegexUnion (RegexPlus (Str2Reg "XXX")) (RegexPlus (Str2Reg "YYYY")))))))) (RegexUnion (RegexStar (RegexPlus (RegexPlus (RegexStar (RegexPlus (RegexUnion (Str2Reg "ZZ") (Str2Reg "!!!!!"))))))) (RegexPlus (RegexStar (RegexUnion (RegexStar (RegexPlus (RegexStar (Str2Reg "\"\"\"")))) (RegexUnion (RegexPlus (RegexPlus (Str2Reg "####"))) (RegexStar (RegexStar (Str2Reg "$$$")))))))))) (RegexUnion (RegexUnion (RegexStar (RegexUnion (RegexUnion (RegexUnion (RegexPlus (RegexUnion (RegexPlus (Str2Reg "%%%")) (RegexStar (Str2Reg "&&&&")))) (RegexStar (RegexStar (RegexPlus (Str2Reg "''''"))))) (RegexStar (RegexStar (RegexStar (RegexStar (Str2Reg "((")))))) (RegexUnion (RegexUnion (RegexPlus (RegexStar (RegexPlus (Str2Reg ")))")))) (RegexStar (RegexPlus (RegexUnion (Str2Reg "*****") (Str2Reg "++++"))))) (RegexUnion (RegexPlus (RegexStar (RegexStar (Str2Reg ",,")))) (RegexStar (RegexUnion (RegexUnion (Str2Reg "--") (Str2Reg ".....")) (RegexStar (Str2Reg "/////")))))))) (RegexStar (RegexPlus (RegexUnion (RegexPlus (RegexPlus (RegexStar (RegexUnion (Str2Reg "::::") (Str2Reg ";;;"))))) (RegexUnion (RegexStar (RegexStar (RegexStar (Str2Reg "<<<")))) (RegexStar (RegexUnion (RegexStar (Str2Reg "=====")) (RegexPlus (Str2Reg ">>"))))))))) (RegexUnion (RegexStar (RegexUnion (RegexPlus (RegexUnion (RegexPlus (RegexStar (RegexStar (Str2Reg "??")))) (RegexStar (RegexPlus (RegexPlus (Str2Reg "@@@")))))) (RegexPlus (RegexStar (RegexPlus (RegexUnion (RegexUnion (Str2Reg "[[[") (Str2Reg "\\\\\\\\\\")) (RegexUnion (Str2Reg "]]]]") (Str2Reg "^^^^^")))))))) (RegexPlus (RegexUnion (RegexStar (RegexStar (RegexPlus (RegexUnion (RegexUnion (Str2Reg "__") (Str2Reg "`````")) (RegexPlus (Str2Reg "{{")))))) (RegexPlus (RegexPlus (RegexStar (RegexStar (RegexUnion (Str2Reg "||||") (Str2Reg "}}}}"))))))))))))) (RegexUnion (RegexStar (RegexUnion (RegexPlus (RegexUnion (RegexUnion (RegexUnion (RegexUnion (RegexUnion (RegexPlus (RegexStar (RegexPlus (Str2Reg "~~~~")))) (RegexStar (RegexStar (RegexStar (Str2Reg "00000"))))) (RegexPlus (RegexUnion (RegexStar (RegexPlus (Str2Reg "111"))) (RegexUnion (RegexPlus (Str2Reg "222")) (RegexStar (Str2Reg "33")))))) (RegexStar (RegexStar (RegexUnion (RegexPlus (RegexStar (Str2Reg "44444"))) (RegexPlus (RegexPlus (Str2Reg "5555"))))))) (RegexUnion (RegexPlus (RegexPlus (RegexStar (RegexUnion (RegexStar (Str2Reg "66666")) (RegexUnion (Str2Reg "77777") (Str2Reg "88")))))) (RegexPlus (RegexUnion (RegexUnion (RegexStar (RegexPlus (Str2Reg "99999"))) (RegexStar (RegexStar (Str2Reg "aaaa")))) (RegexPlus (RegexUnion (RegexStar (Str2Reg "bbbbb")) (RegexUnion (Str2Reg "cc") (Str2Reg "ddd")))))))) (RegexUnion (RegexUnion (RegexStar (RegexPlus (RegexUnion (RegexStar (RegexUnion (Str2Reg "eeee") (Str2Reg "ffff"))) (RegexUnion (RegexUnion (Str2Reg "ggg") (Str2Reg "hhh")) (RegexUnion (Str2Reg "iii") (Str2Reg "jjjjj")))))) (RegexPlus (RegexUnion (RegexPlus (RegexPlus (RegexUnion (Str2Reg "kkk") (Str2Reg "llll")))) (RegexStar (RegexStar (RegexStar (Str2Reg "mmmm"))))))) (RegexStar (RegexUnion (RegexStar (RegexPlus (RegexUnion (RegexPlus (Str2Reg "nn")) (RegexStar (Str2Reg "ooooo"))))) (RegexUnion (RegexStar (RegexStar (RegexUnion (Str2Reg "ppppp") (Str2Reg "qqqq")))) (RegexPlus (RegexPlus (RegexPlus (Str2Reg "rr")))))))))) (RegexPlus (RegexStar (RegexStar (RegexStar (RegexPlus (RegexUnion (RegexUnion (RegexStar (RegexPlus (Str2Reg "sss"))) (RegexUnion (RegexPlus (Str2Reg "ttttt")) (RegexUnion (Str2Reg "uu") (Str2Reg "vv")))) (RegexUnion (RegexPlus (RegexPlus (Str2Reg "wwwww"))) (RegexPlus (RegexPlus (Str2Reg "xx")))))))))))) (RegexStar (RegexPlus (RegexUnion (RegexPlus (RegexStar (RegexPlus (RegexPlus (RegexStar (RegexUnion (RegexStar (RegexStar (Str2Reg "yyy"))) (RegexStar (RegexStar (Str2Reg "zzzz"))))))))) (RegexUnion (RegexStar (RegexUnion (RegexStar (RegexStar (RegexStar (RegexUnion (RegexStar (Str2Reg "AAA")) (RegexPlus (Str2Reg "BBBB")))))) (RegexPlus (RegexUnion (RegexUnion (RegexUnion (RegexPlus (Str2Reg "CC")) (RegexPlus (Str2Reg "DDD"))) (RegexPlus (RegexStar (Str2Reg "EEE")))) (RegexPlus (RegexStar (RegexUnion (Str2Reg "FFF") (Str2Reg "GG")))))))) (RegexUnion (RegexUnion (RegexStar (RegexStar (RegexPlus (RegexPlus (RegexStar (Str2Reg "HHHHH")))))) (RegexPlus (RegexStar (RegexStar (RegexUnion (RegexUnion (Str2Reg "IIII") (Str2Reg "JJ")) (RegexStar (Str2Reg "KKKK"))))))) (RegexPlus (RegexUnion (RegexStar (RegexUnion (RegexUnion (RegexPlus (Str2Reg "LL")) (RegexStar (Str2Reg "MMMM"))) (RegexStar (RegexPlus (Str2Reg "NNNNN"))))) (RegexPlus (RegexStar (RegexPlus (RegexStar (Str2Reg "OO")))))))))))))) (RegexPlus (RegexStar (RegexStar (RegexPlus (RegexPlus (RegexUnion (RegexPlus (RegexUnion (RegexStar (RegexStar (RegexUnion (RegexStar (RegexUnion (Str2Reg "PPP") (Str2Reg "QQQQ"))) (RegexPlus (RegexUnion (Str2Reg "RR") (Str2Reg "SSSSS")))))) (RegexPlus (RegexStar (RegexStar (RegexPlus (RegexStar (Str2Reg "TTT")))))))) (RegexUnion (RegexPlus (RegexStar (RegexUnion (RegexUnion (RegexStar (RegexStar (Str2Reg "UUU"))) (RegexUnion (RegexStar (Str2Reg "VV")) (RegexPlus (Str2Reg "WWWWW")))) (RegexPlus (RegexStar (RegexPlus (Str2Reg "XXXXX"))))))) (RegexPlus (RegexPlus (RegexPlus (RegexUnion (RegexPlus (RegexPlus (Str2Reg "YYYYY"))) (RegexStar (RegexUnion (Str2Reg "ZZZZ") (Str2Reg "!!"))))))))))))))) (RegexUnion (RegexUnion (RegexPlus (RegexUnion (RegexUnion (RegexPlus (RegexStar (RegexPlus (RegexStar (RegexPlus (RegexUnion (RegexStar (RegexStar (RegexUnion (Str2Reg "\"\"\"\"\"") (Str2Reg "##")))) (RegexUnion (RegexStar (RegexUnion (Str2Reg "$$$$$") (Str2Reg "%%%"))) (RegexStar (RegexStar (Str2Reg "&&&")))))))))) (RegexUnion (RegexUnion (RegexUnion (RegexStar (RegexPlus (RegexUnion (RegexUnion (RegexStar (RegexPlus (Str2Reg "''"))) (RegexPlus (RegexStar (Str2Reg "((")))) (RegexUnion (RegexStar (RegexStar (Str2Reg "))))"))) (RegexUnion (RegexPlus (Str2Reg "****")) (RegexStar (Str2Reg "++++"))))))) (RegexUnion (RegexUnion (RegexPlus (RegexPlus (RegexStar (RegexStar (Str2Reg ",,,,"))))) (RegexPlus (RegexStar (RegexStar (RegexStar (Str2Reg "----")))))) (RegexPlus (RegexStar (RegexStar (RegexStar (RegexPlus (Str2Reg ".....")))))))) (RegexUnion (RegexUnion (RegexUnion (RegexPlus (RegexPlus (RegexStar (RegexUnion (Str2Reg "/////") (Str2Reg ":::"))))) (RegexStar (RegexStar (RegexPlus (RegexPlus (Str2Reg ";;;;;")))))) (RegexStar (RegexPlus (RegexStar (RegexStar (RegexStar (Str2Reg "<<<<"))))))) (RegexUnion (RegexUnion (RegexUnion (RegexPlus (RegexStar (RegexUnion (Str2Reg "====") (Str2Reg ">>>")))) (RegexPlus (RegexUnion (RegexUnion (Str2Reg "???") (Str2Reg "@@@@@")) (RegexUnion (Str2Reg "[[") (Str2Reg "\\\\\\"))))) (RegexPlus (RegexUnion (RegexUnion (RegexUnion (Str2Reg "]]]]]") (Str2Reg "^^^^^")) (RegexPlus (Str2Reg "___"))) (RegexPlus (RegexPlus (Str2Reg "`````")))))) (RegexUnion (RegexStar (RegexUnion (RegexUnion (RegexUnion (Str2Reg "{{{{{") (Str2Reg "|||")) (RegexPlus (Str2Reg "}}}}"))) (RegexPlus (RegexStar (Str2Reg "~~"))))) (RegexStar (RegexUnion (RegexPlus (RegexPlus (Str2Reg "00000"))) (RegexStar (RegexPlus (Str2Reg "111"))))))))) (RegexPlus (RegexPlus (RegexStar (RegexUnion (RegexUnion (RegexUnion (RegexPlus (RegexUnion (Str2Reg "22") (Str2Reg "33"))) (RegexUnion (RegexPlus (Str2Reg "4444")) (RegexStar (Str2Reg "55")))) (RegexUnion (RegexPlus (RegexStar (Str2Reg "6666"))) (RegexStar (RegexStar (Str2Reg "77"))))) (RegexPlus (RegexStar (RegexPlus (RegexStar (Str2Reg "888"))))))))))) (RegexPlus (RegexStar (RegexPlus (RegexPlus (RegexPlus (RegexStar (RegexStar (RegexStar (RegexPlus (RegexStar (Str2Reg "99"))))))))))))) (RegexStar (RegexUnion (RegexUnion (RegexUnion (RegexStar (RegexUnion (RegexPlus (RegexPlus (RegexUnion (RegexUnion (RegexPlus (RegexUnion (Str2Reg "aaaa") (Str2Reg "bbbbb"))) (RegexUnion (RegexStar (Str2Reg "ccc")) (RegexUnion (Str2Reg "dd") (Str2Reg "eee")))) (RegexUnion (RegexPlus (RegexPlus (Str2Reg "ffff"))) (RegexStar (RegexStar (Str2Reg "gggg"))))))) (RegexStar (RegexPlus (RegexUnion (RegexPlus (RegexUnion (RegexUnion (Str2Reg "hhh") (Str2Reg "ii")) (RegexStar (Str2Reg "jjj")))) (RegexStar (RegexUnion (RegexPlus (Str2Reg "kkk")) (RegexPlus (Str2Reg "lllll"))))))))) (RegexPlus (RegexUnion (RegexPlus (RegexStar (RegexStar (RegexStar (RegexUnion (RegexUnion (Str2Reg "mmmmm") (Str2Reg "nnnnn")) (RegexStar (Str2Reg "ooooo"))))))) (RegexStar (RegexPlus (RegexStar (RegexStar (RegexUnion (RegexUnion (Str2Reg "pppp") (Str2Reg "qqqqq")) (RegexStar (Str2Reg "rr")))))))))) (RegexStar (RegexStar (RegexPlus (RegexUnion (RegexPlus (RegexUnion (RegexUnion (RegexStar (RegexStar (Str2Reg "ssss"))) (RegexStar (RegexPlus (Str2Reg "ttt")))) (RegexStar (RegexStar (RegexStar (Str2Reg "uuuu")))))) (RegexUnion (RegexPlus (RegexUnion (RegexPlus (RegexUnion (Str2Reg "vvv") (Str2Reg "wwwww"))) (RegexStar (RegexStar (Str2Reg "xxxx"))))) (RegexStar (RegexStar (RegexUnion (RegexStar (Str2Reg "yyyyy")) (RegexUnion (Str2Reg "zzzz") (Str2Reg "AAAAA"))))))))))) (RegexUnion (RegexStar (RegexStar (RegexUnion (RegexPlus (RegexUnion (RegexPlus (RegexPlus (RegexStar (RegexStar (Str2Reg "BBBB"))))) (RegexStar (RegexPlus (RegexUnion (RegexStar (Str2Reg "CCCC")) (RegexPlus (Str2Reg "DD"))))))) (RegexStar (RegexStar (RegexStar (RegexPlus (RegexStar (RegexPlus (Str2Reg "EEE")))))))))) (RegexUnion (RegexUnion (RegexUnion (RegexPlus (RegexStar (RegexPlus (RegexStar (RegexStar (RegexStar (Str2Reg "FFFF"))))))) (RegexStar (RegexUnion (RegexStar (RegexUnion (RegexPlus (RegexStar (Str2Reg "GG"))) (RegexUnion (RegexPlus (Str2Reg "HH")) (RegexUnion (Str2Reg "IIIII") (Str2Reg "JJJ"))))) (RegexUnion (RegexUnion (RegexStar (RegexStar (Str2Reg "KKK"))) (RegexUnion (RegexUnion (Str2Reg "LLL") (Str2Reg "MMM")) (RegexPlus (Str2Reg "NN")))) (RegexUnion (RegexUnion (RegexUnion (Str2Reg "OOOOO") (Str2Reg "PP")) (RegexUnion (Str2Reg "QQQQ") (Str2Reg "RRR"))) (RegexStar (RegexPlus (Str2Reg "SSSSS")))))))) (RegexStar (RegexStar (RegexStar (RegexPlus (RegexUnion (RegexStar (RegexUnion (Str2Reg "TTTTT") (Str2Reg "UU"))) (RegexStar (RegexStar (Str2Reg "VVVVV"))))))))) (RegexStar (RegexUnion (RegexStar (RegexPlus (RegexStar (RegexPlus (RegexPlus (RegexStar (Str2Reg "WWW"))))))) (RegexPlus (RegexStar (RegexStar (RegexStar (RegexStar (RegexPlus (Str2Reg "XXXX")))))))))))))) (RegexPlus (RegexStar (RegexStar (RegexPlus (RegexPlus (RegexStar (RegexUnion (RegexStar (RegexUnion (RegexUnion (RegexPlus (RegexPlus (RegexStar (Str2Reg "YY")))) (RegexPlus (RegexUnion (RegexPlus (Str2Reg "ZZ")) (RegexPlus (Str2Reg "!!!"))))) (RegexStar (RegexPlus (RegexStar (RegexStar (Str2Reg "\"\"\""))))))) (RegexStar (RegexUnion (RegexStar (RegexPlus (RegexStar (RegexStar (Str2Reg "####"))))) (RegexUnion (RegexPlus (RegexUnion (RegexUnion (Str2Reg "$$$$$") (Str2Reg "%%%")) (RegexUnion (Str2Reg "&&") (Str2Reg "'''")))) (RegexUnion (RegexStar (RegexStar (Str2Reg "((((("))) (RegexUnion (RegexUnion (Str2Reg ")))))") (Str2Reg "****")) (RegexPlus (Str2Reg "+++"))))))))))))))))) (RegexPlus (RegexStar (RegexPlus (RegexUnion (RegexUnion (RegexStar (RegexUnion (RegexStar (RegexStar (RegexPlus (RegexUnion (RegexUnion (RegexUnion (RegexPlus (RegexUnion (RegexStar (Str2Reg ",,,,,")) (RegexPlus (Str2Reg "----")))) (RegexUnion (RegexStar (RegexPlus (Str2Reg "..."))) (RegexUnion (RegexPlus (Str2Reg "////")) (RegexPlus (Str2Reg ":::"))))) (RegexPlus (RegexStar (RegexUnion (RegexStar (Str2Reg ";;")) (RegexPlus (Str2Reg "<<")))))) (RegexPlus (RegexUnion (RegexPlus (RegexStar (RegexUnion (Str2Reg "=====") (Str2Reg ">>")))) (RegexStar (RegexStar (RegexStar (Str2Reg "????")))))))))) (RegexUnion (RegexStar (RegexUnion (RegexPlus (RegexStar (RegexUnion (RegexStar (RegexStar (RegexStar (Str2Reg "@@")))) (RegexStar (RegexUnion (RegexStar (Str2Reg "[[")) (RegexUnion (Str2Reg "\\\\\\") (Str2Reg "]]]]]"))))))) (RegexPlus (RegexUnion (RegexUnion (RegexUnion (RegexPlus (RegexPlus (Str2Reg "^^"))) (RegexStar (RegexStar (Str2Reg "__")))) (RegexStar (RegexUnion (RegexStar (Str2Reg "``")) (RegexStar (Str2Reg "{{{{{"))))) (RegexUnion (RegexPlus (RegexPlus (RegexPlus (Str2Reg "|||")))) (RegexPlus (RegexPlus (RegexPlus (Str2Reg "}}"))))))))) (RegexStar (RegexStar (RegexPlus (RegexPlus (RegexUnion (RegexPlus (RegexStar (RegexStar (Str2Reg "~~~~")))) (RegexPlus (RegexStar (RegexPlus (Str2Reg "000")))))))))))) (RegexPlus (RegexPlus (RegexStar (RegexUnion (RegexStar (RegexStar (RegexStar (RegexPlus (RegexUnion (RegexPlus (RegexPlus (Str2Reg "11111"))) (RegexPlus (RegexStar (Str2Reg "222")))))))) (RegexPlus (RegexPlus (RegexStar (RegexUnion (RegexUnion (RegexStar (RegexUnion (Str2Reg "33333") (Str2Reg "4444"))) (RegexPlus (RegexUnion (Str2Reg "5555") (Str2Reg "66")))) (RegexUnion (RegexUnion (RegexStar (Str2Reg "77777")) (RegexStar (Str2Reg "888"))) (RegexPlus (RegexUnion (Str2Reg "99999") (Str2Reg "aa"))))))))))))) (RegexPlus (RegexPlus (RegexStar (RegexUnion (RegexPlus (RegexUnion (RegexStar (RegexPlus (RegexStar (RegexStar (RegexStar (RegexUnion (Str2Reg "bbbb") (Str2Reg "ccc"))))))) (RegexUnion (RegexStar (RegexPlus (RegexStar (RegexStar (RegexUnion (Str2Reg "ddddd") (Str2Reg "ee")))))) (RegexPlus (RegexStar (RegexStar (RegexStar (RegexStar (Str2Reg "ffff"))))))))) (RegexPlus (RegexStar (RegexPlus (RegexStar (RegexPlus (RegexUnion (RegexUnion (RegexUnion (Str2Reg "ggggg") (Str2Reg "hhhh")) (RegexUnion (Str2Reg "iiii") (Str2Reg "jj"))) (RegexUnion (RegexUnion (Str2Reg "kkkk") (Str2Reg "llll")) (RegexStar (Str2Reg "mmmm")))))))))))))))))) (RegexPlus (RegexUnion (RegexPlus (RegexStar (RegexPlus (RegexUnion (RegexPlus (RegexPlus (RegexStar (RegexUnion (RegexStar (RegexStar (RegexStar (RegexStar (RegexUnion (RegexStar (RegexPlus (Str2Reg "nnnn"))) (RegexPlus (RegexUnion (Str2Reg "oo") (Str2Reg "ppp")))))))) (RegexPlus (RegexPlus (RegexStar (RegexPlus (RegexUnion (RegexUnion (RegexUnion (Str2Reg "qqq") (Str2Reg "rr")) (RegexUnion (Str2Reg "sss") (Str2Reg "ttttt"))) (RegexPlus (RegexStar (Str2Reg "uuuu")))))))))))) (RegexUnion (RegexStar (RegexUnion (RegexUnion (RegexPlus (RegexStar (RegexPlus (RegexStar (RegexStar (RegexUnion (RegexUnion (Str2Reg "vvvv") (Str2Reg "www")) (RegexUnion (Str2Reg "xxxx") (Str2Reg "yyy")))))))) (RegexStar (RegexPlus (RegexPlus (RegexPlus (RegexPlus (RegexStar (RegexStar (Str2Reg "zz"))))))))) (RegexUnion (RegexStar (RegexPlus (RegexPlus (RegexStar (RegexPlus (RegexPlus (RegexStar (Str2Reg "AAA")))))))) (RegexUnion (RegexPlus (RegexPlus (RegexStar (RegexPlus (RegexPlus (RegexPlus (Str2Reg "BBB"))))))) (RegexUnion (RegexPlus (RegexPlus (RegexStar (RegexUnion (RegexPlus (Str2Reg "CCCCC")) (RegexPlus (Str2Reg "DDDDD")))))) (RegexStar (RegexPlus (RegexUnion (RegexPlus (RegexStar (Str2Reg "EE"))) (RegexUnion (RegexStar (Str2Reg "FF")) (RegexStar (Str2Reg "GGGG"))))))))))) (RegexStar (RegexStar (RegexStar (RegexStar (RegexUnion (RegexStar (RegexPlus (RegexPlus (RegexPlus (RegexStar (Str2Reg "HH")))))) (RegexPlus (RegexUnion (RegexPlus (RegexUnion (RegexUnion (Str2Reg "IIII") (Str2Reg "JJJJJ")) (RegexUnion (Str2Reg "KK") (Str2Reg "LLLL")))) (RegexUnion (RegexStar (RegexPlus (Str2Reg "MM"))) (RegexStar (RegexPlus (Str2Reg "NNNN")))))))))))))))) (RegexStar (RegexStar (RegexPlus (RegexPlus (RegexStar (RegexStar (RegexPlus (RegexPlus (RegexPlus (RegexStar (RegexPlus (RegexPlus (RegexStar (RegexPlus (RegexStar (Str2Reg "OOOO"))))))))))))))))))))) (RegexPlus (RegexPlus (RegexPlus (RegexStar (RegexStar (RegexUnion (RegexUnion (RegexStar (RegexPlus (RegexPlus (RegexStar (RegexUnion (RegexStar (RegexStar (RegexUnion (RegexUnion (RegexUnion (RegexPlus (RegexPlus (RegexPlus (Str2Reg "000")))) (RegexStar (RegexPlus (RegexStar (Str2Reg "1111"))))) (RegexUnion (RegexStar (RegexUnion (RegexStar (Str2Reg "22222")) (RegexStar (Str2Reg "333")))) (RegexStar (RegexPlus (RegexPlus (Str2Reg "4444")))))) (RegexUnion (RegexUnion (RegexStar (RegexUnion (RegexStar (Str2Reg "5555")) (RegexPlus (Str2Reg "666")))) (RegexStar (RegexPlus (RegexUnion (Str2Reg "7777") (Str2Reg "8888"))))) (RegexPlus (RegexStar (RegexStar (RegexPlus (Str2Reg "999"))))))))) (RegexUnion (RegexUnion (RegexPlus (RegexPlus (RegexUnion (RegexPlus (RegexStar (RegexUnion (Str2Reg "aa") (Str2Reg "bbbb")))) (RegexUnion (RegexUnion (RegexUnion (Str2Reg "cc") (Str2Reg "ddddd")) (RegexUnion (Str2Reg "eeee") (Str2Reg "ffff"))) (RegexStar (RegexPlus (Str2Reg "ggggg"))))))) (RegexPlus (RegexPlus (RegexStar (RegexUnion (RegexStar (RegexStar (Str2Reg "hh"))) (RegexPlus (RegexUnion (Str2Reg "iiiii") (Str2Reg "jjj")))))))) (RegexStar (RegexStar (RegexStar (RegexPlus (RegexPlus (RegexPlus (RegexPlus (Str2Reg "kk")))))))))))))) (RegexPlus (RegexUnion (RegexUnion (RegexPlus (RegexPlus (RegexUnion (RegexPlus (RegexUnion (RegexUnion (RegexUnion (RegexStar (RegexUnion (RegexStar (Str2Reg "lllll")) (RegexStar (Str2Reg "mm")))) (RegexStar (RegexStar (RegexPlus (Str2Reg "nnn"))))) (RegexStar (RegexUnion (RegexPlus (RegexPlus (Str2Reg "oooo"))) (RegexUnion (RegexUnion (Str2Reg "pppp") (Str2Reg "qqqq")) (RegexUnion (Str2Reg "rrrr") (Str2Reg "sssss")))))) (RegexUnion (RegexStar (RegexUnion (RegexUnion (RegexPlus (Str2Reg "tt")) (RegexPlus (Str2Reg "uuuu"))) (RegexPlus (RegexStar (Str2Reg "vvvv"))))) (RegexPlus (RegexStar (RegexStar (RegexUnion (Str2Reg "ww") (Str2Reg "xx")))))))) (RegexPlus (RegexPlus (RegexPlus (RegexUnion (RegexStar (RegexStar (RegexStar (Str2Reg "yyyy")))) (RegexStar (RegexStar (RegexPlus (Str2Reg "zzz"))))))))))) (RegexStar (RegexPlus (RegexPlus (RegexPlus (RegexUnion (RegexUnion (RegexPlus (RegexStar (RegexStar (RegexStar (Str2Reg "AAAA"))))) (RegexUnion (RegexUnion (RegexPlus (RegexUnion (Str2Reg "BBBBB") (Str2Reg "CCCC"))) (RegexStar (RegexStar (Str2Reg "DDDDD")))) (RegexPlus (RegexUnion (RegexUnion (Str2Reg "EEEEE") (Str2Reg "FFFFF")) (RegexStar (Str2Reg "GGG")))))) (RegexStar (RegexUnion (RegexUnion (RegexStar (RegexPlus (Str2Reg "HHHH"))) (RegexPlus (RegexUnion (Str2Reg "II") (Str2Reg "JJJ")))) (RegexStar (RegexUnion (RegexUnion (Str2Reg "KKKKK") (Str2Reg "LL")) (RegexPlus (Str2Reg "MMM")))))))))))) (RegexUnion (RegexStar (RegexPlus (RegexPlus (RegexPlus (RegexUnion (RegexPlus (RegexPlus (RegexPlus (RegexPlus (RegexPlus (Str2Reg "NN")))))) (RegexStar (RegexUnion (RegexUnion (RegexUnion (RegexPlus (Str2Reg "OOO")) (RegexPlus (Str2Reg "PPP"))) (RegexStar (RegexStar (Str2Reg "QQQ")))) (RegexUnion (RegexUnion (RegexStar (Str2Reg "RR")) (RegexUnion (Str2Reg "SS") (Str2Reg "TT"))) (RegexPlus (RegexPlus (Str2Reg "UUUUU"))))))))))) (RegexUnion (RegexPlus (RegexUnion (RegexUnion (RegexStar (RegexStar (RegexUnion (RegexUnion (RegexStar (RegexPlus (Str2Reg "VVVVV"))) (RegexStar (RegexStar (Str2Reg "WWWWW")))) (RegexStar (RegexPlus (RegexStar (Str2Reg "XX"))))))) (RegexPlus (RegexPlus (RegexUnion (RegexPlus (RegexStar (RegexStar (Str2Reg "YYYYY")))) (RegexPlus (RegexUnion (RegexStar (Str2Reg "ZZZZZ")) (RegexUnion (Str2Reg "!!") (Str2Reg "\"\"")))))))) (RegexPlus (RegexUnion (RegexUnion (RegexUnion (RegexUnion (RegexStar (RegexStar (Str2Reg "#####"))) (RegexUnion (RegexUnion (Str2Reg "$$$") (Str2Reg "%%%%")) (RegexStar (Str2Reg "&&&")))) (RegexPlus (RegexPlus (RegexStar (Str2Reg "'''''"))))) (RegexUnion (RegexStar (RegexPlus (RegexUnion (Str2Reg "(((((") (Str2Reg ")))))")))) (RegexPlus (RegexStar (RegexPlus (Str2Reg "****")))))) (RegexUnion (RegexPlus (RegexPlus (RegexPlus (RegexUnion (Str2Reg "++++") (Str2Reg ",,,"))))) (RegexStar (RegexUnion (RegexStar (RegexPlus (Str2Reg "--"))) (RegexStar (RegexPlus (Str2Reg "..")))))))))) (RegexPlus (RegexUnion (RegexStar (RegexStar (RegexStar (RegexStar (RegexPlus (RegexPlus (RegexPlus (Str2Reg "///")))))))) (RegexPlus (RegexUnion (RegexPlus (RegexStar (RegexPlus (RegexUnion (RegexPlus (Str2Reg ":::::")) (RegexStar (Str2Reg ";;")))))) (RegexStar (RegexUnion (RegexUnion (RegexStar (RegexPlus (Str2Reg "<<<<<"))) (RegexStar (RegexPlus (Str2Reg "===")))) (RegexUnion (RegexStar (RegexPlus (Str2Reg ">>>>>"))) (RegexStar (RegexUnion (Str2Reg "???") (Str2Reg "@@@"))))))))))))))) (RegexStar (RegexStar (RegexUnion (RegexPlus (RegexPlus (RegexStar (RegexPlus (RegexPlus (RegexPlus (RegexStar (RegexPlus (RegexPlus (RegexStar (RegexPlus (Str2Reg "[[")))))))))))) (RegexPlus (RegexPlus (RegexUnion (RegexPlus (RegexUnion (RegexStar (RegexUnion (RegexUnion (RegexUnion (RegexUnion (RegexPlus (Str2Reg "\\\\\\")) (RegexStar (Str2Reg "]]]"))) (RegexPlus (RegexPlus (Str2Reg "^^^^")))) (RegexPlus (RegexUnion (RegexUnion (Str2Reg "____") (Str2Reg "```")) (RegexPlus (Str2Reg "{{{{"))))) (RegexPlus (RegexStar (RegexPlus (RegexUnion (Str2Reg "||") (Str2Reg "}}}}}"))))))) (RegexPlus (RegexUnion (RegexStar (RegexPlus (RegexUnion (RegexStar (Str2Reg "~~~~~")) (RegexUnion (Str2Reg "00") (Str2Reg "11"))))) (RegexUnion (RegexUnion (RegexPlus (RegexStar (Str2Reg "22"))) (RegexUnion (RegexPlus (Str2Reg "33333")) (RegexUnion (Str2Reg "44444") (Str2Reg "5555")))) (RegexUnion (RegexStar (RegexUnion (Str2Reg "66") (Str2Reg "77"))) (RegexStar (RegexUnion (Str2Reg "8888") (Str2Reg "999"))))))))) (RegexUnion (RegexUnion (RegexStar (RegexPlus (RegexStar (RegexPlus (RegexUnion (RegexStar (Str2Reg "aaaaa")) (RegexStar (Str2Reg "bbbb"))))))) (RegexPlus (RegexStar (RegexStar (RegexUnion (RegexUnion (RegexUnion (Str2Reg "cc") (Str2Reg "ddddd")) (RegexStar (Str2Reg "eeee"))) (RegexStar (RegexPlus (Str2Reg "ff")))))))) (RegexPlus (RegexUnion (RegexUnion (RegexStar (RegexStar (RegexPlus (RegexStar (Str2Reg "ggg"))))) (RegexStar (RegexStar (RegexPlus (RegexUnion (Str2Reg "hhh") (Str2Reg "ii")))))) (RegexStar (RegexPlus (RegexUnion (RegexUnion (RegexStar (Str2Reg "jjj")) (RegexPlus (Str2Reg "kkkk"))) (RegexUnion (RegexStar (Str2Reg "lll")) (RegexUnion (Str2Reg "mm") (Str2Reg "nnnnn")))))))))))))))))))))))))
(assert (<= 15 (Length var0)))
(check-sat)